
Gurobi 9.5.1 (linux64) logging started Sun Apr 17 10:35:16 2022

Set parameter LogFile to value "../results/logs/log_flickrEdges_20_20_2022_04_17_09_25.log"
Gurobi Optimizer version 9.5.1 build v9.5.1rc2 (linux64)
Thread count: 8 physical cores, 8 logical processors, using up to 8 threads
Optimize a model with 11077 rows, 211876 columns and 719250 nonzeros
Model fingerprint: 0x21d79228
Variable types: 0 continuous, 211876 integer (211876 binary)
Coefficient statistics:
  Matrix range     [1e+00, 2e+01]
  Objective range  [1e+00, 1e+00]
  Bounds range     [1e+00, 1e+00]
  RHS range        [1e+00, 2e+01]
Found heuristic solution: objective 15808.000000
Presolve removed 176 rows and 143865 columns
Presolve time: 0.98s
Presolved: 10901 rows, 68011 columns, 358331 nonzeros
Found heuristic solution: objective 15819.000000
Variable types: 0 continuous, 68011 integer (63922 binary)

Deterministic concurrent LP optimizer: primal and dual simplex
Showing first log only...

Warning: Markowitz tolerance tightened to 0.125

Root simplex log...

Iteration    Objective       Primal Inf.    Dual Inf.      Time
    5442    1.6193844e+04   0.000000e+00   7.591481e+01      6s
    5621    1.6214162e+04   0.000000e+00   0.000000e+00      7s
    5621    1.6214162e+04   0.000000e+00   0.000000e+00      7s
Concurrent spin time: 0.00s

Solved with primal simplex

Root relaxation: objective 1.621416e+04, 5621 iterations, 5.95 seconds (9.21 work units)

    Nodes    |    Current Node    |     Objective Bounds      |     Work
 Expl Unexpl |  Obj  Depth IntInf | Incumbent    BestBd   Gap | It/Node Time

     0     0 16214.1618    0 5467 15819.0000 16214.1618  2.50%     -    9s
H    0     0                    15833.000000 16214.1618  2.41%     -   19s
     0     0 16069.1196    0 5340 15833.0000 16069.1196  1.49%     -   24s
     0     0 16013.2230    0 5162 15833.0000 16013.2230  1.14%     -   33s
     0     0 15969.8530    0 4891 15833.0000 15969.8530  0.86%     -   42s
     0     0 15942.5502    0 4747 15833.0000 15942.5502  0.69%     -   53s
     0     0 15938.0351    0 4755 15833.0000 15938.0351  0.66%     -   56s
     0     0 15908.7834    0 4642 15833.0000 15908.7834  0.48%     -   72s
     0     0 15895.4175    0 4600 15833.0000 15895.4175  0.39%     -   87s
     0     0 15893.0872    0 4701 15833.0000 15893.0872  0.38%     -   92s
     0     0 15882.9020    0 4799 15833.0000 15882.9020  0.32%     -  115s
     0     0 15881.7569    0 4804 15833.0000 15881.7569  0.31%     -  120s
     0     0 15876.3388    0 4885 15833.0000 15876.3388  0.27%     -  139s
     0     0 15874.7235    0 4874 15833.0000 15874.7235  0.26%     -  148s
     0     0 15871.7054    0 4792 15833.0000 15871.7054  0.24%     -  166s
     0     0 15871.1316    0 4812 15833.0000 15871.1316  0.24%     -  173s
     0     0 15869.4027    0 4653 15833.0000 15869.4027  0.23%     -  184s
     0     0 15868.0382    0 4340 15833.0000 15868.0382  0.22%     -  196s
     0     0 15867.3116    0 4202 15833.0000 15867.3116  0.22%     -  204s
     0     0 15866.7823    0 3933 15833.0000 15866.7823  0.21%     -  212s
     0     0 15866.6723    0 3921 15833.0000 15866.6723  0.21%     -  216s
     0     0 15866.6324    0 3875 15833.0000 15866.6324  0.21%     -  217s
     0     0 15866.6222    0 3878 15833.0000 15866.6222  0.21%     -  218s
     0     0 15856.3185    0 4784 15833.0000 15856.3185  0.15%     -  263s
     0     0 15853.8849    0 4983 15833.0000 15853.8849  0.13%     -  287s
     0     0 15852.2809    0 4938 15833.0000 15852.2809  0.12%     -  313s
     0     0 15849.7859    0 5062 15833.0000 15849.7859  0.11%     -  351s
     0     0 15848.6998    0 5306 15833.0000 15848.6998  0.10%     -  383s
     0     0 15847.8968    0 5300 15833.0000 15847.8968  0.09%     -  408s
     0     0 15847.1232    0 5539 15833.0000 15847.1232  0.09%     -  453s
     0     0 15846.6140    0 5742 15833.0000 15846.6140  0.09%     -  487s
     0     0 15846.1980    0 5788 15833.0000 15846.1980  0.08%     -  518s
     0     0 15845.3434    0 5858 15833.0000 15845.3434  0.08%     -  545s
     0     0 15845.1655    0 5873 15833.0000 15845.1655  0.08%     -  565s
     0     0 15843.3446    0 6058 15833.0000 15843.3446  0.07%     -  685s
     0     0 15842.1558    0 6214 15833.0000 15842.1558  0.06%     -  788s
     0     0 15841.5793    0 6218 15833.0000 15841.5793  0.05%     -  846s
     0     0 15841.0265    0 6252 15833.0000 15841.0265  0.05%     -  932s
     0     0 15839.9731    0 6344 15833.0000 15839.9731  0.04%     - 1018s
     0     0 15839.6952    0 6393 15833.0000 15839.6952  0.04%     - 1074s
     0     0 15838.8636    0 6416 15833.0000 15838.8636  0.04%     - 1255s
     0     0 15838.8620    0 6379 15833.0000 15838.8620  0.04%     - 1269s
     0     0 15838.8620    0 6379 15833.0000 15838.8620  0.04%     - 1270s
     0     2 15838.8620    0 6376 15833.0000 15838.8620  0.04%     - 1390s
     1     3 15838.8219    1 6382 15833.0000 15838.8219  0.04%   6.0 1396s
     3     5 15838.6232    2 6384 15833.0000 15838.6232  0.04%   410 1401s
     6     8 15838.6232    3 6383 15833.0000 15838.6232  0.04%   384 1467s
    11     5 15838.0451    4 6442 15833.0000 15838.6229  0.04%  3061 1682s
    19     9 15838.0450    5 6436 15833.0000 15838.0450  0.03%  8461 1726s
    24    12 15838.0424    6 6443 15833.0000 15838.0424  0.03%  8665 2033s
    32    18 15838.0281    7 6431 15833.0000 15838.0423  0.03%  7132 2069s
    40    19 15837.5784    8 6493 15833.0000 15838.0281  0.03%  6411 2335s
    48    20 15836.4763    8 6434 15833.0000 15837.7354  0.03%  9077 2550s
    56    33 15837.5784    9 6486 15833.0000 15837.5784  0.03% 10120 2695s
    69    30 15836.9467   11 6623 15833.0000 15837.5782  0.03%  9285 3405s
    77    32 15835.4832   13 6461 15833.0000 15837.5782  0.03% 13874 3600s

Cutting planes:
  Gomory: 10
  Cover: 1506
  Implied bound: 90
  MIR: 1489
  StrongCG: 29
  GUB cover: 750
  Zero half: 2
  RLT: 3326

Explored 81 nodes (1207873 simplex iterations) in 3600.04 seconds (6507.14 work units)
Thread count was 8 (of 8 available processors)

Solution count 3: 15833 15819 15808 

Time limit reached
Best objective 1.583300000000e+04, best bound 1.583700000000e+04, gap 0.0253%
